<?xml version = "1.0" standalone="yes"?>
<!-- This file has been generated by DOcplex version 2.23.222  -->
<CPLEXSolution version="1.0">
 <header
   problemName="CVRP"
   objectiveValue="16203.2"
  />
 <variables>
  <variable name="x_0_1" index="0" value="1.00000"/>
  <variable name="x_0_2" index="1" value="1.00000"/>
  <variable name="x_0_3" index="2" value="1.00000"/>
  <variable name="x_0_4" index="3" value="1.00000"/>
  <variable name="x_0_5" index="4" value="1.00000"/>
  <variable name="x_0_6" index="5" value="1.00000"/>
  <variable name="x_0_7" index="6" value="1.00000"/>
  <variable name="x_0_9" index="8" value="1.00000"/>
  <variable name="x_0_10" index="9" value="1.00000"/>
  <variable name="x_0_11" index="10" value="1.00000"/>
  <variable name="x_0_14" index="13" value="1.00000"/>
  <variable name="x_0_15" index="14" value="1.00000"/>
  <variable name="x_0_16" index="15" value="1.00000"/>
  <variable name="x_0_17" index="16" value="1.00000"/>
  <variable name="x_0_18" index="17" value="1.00000"/>
  <variable name="x_0_19" index="18" value="1.00000"/>
  <variable name="x_1_0" index="22" value="1.00000"/>
  <variable name="x_2_13" index="56" value="1.00000"/>
  <variable name="x_3_0" index="66" value="1.00000"/>
  <variable name="x_4_8" index="95" value="1.00000"/>
  <variable name="x_5_21" index="130" value="1.00000"/>
  <variable name="x_6_0" index="132" value="1.00000"/>
  <variable name="x_7_20" index="173" value="1.00000"/>
  <variable name="x_8_0" index="176" value="1.00000"/>
  <variable name="x_9_0" index="198" value="1.00000"/>
  <variable name="x_10_0" index="220" value="1.00000"/>
  <variable name="x_11_0" index="242" value="1.00000"/>
  <variable name="x_12_0" index="264" value="1.00000"/>
  <variable name="x_13_0" index="286" value="1.00000"/>
  <variable name="x_14_0" index="308" value="1.00000"/>
  <variable name="x_15_0" index="330" value="1.00000"/>
  <variable name="x_16_22" index="373" value="1.00000"/>
  <variable name="x_17_0" index="374" value="1.00000"/>
  <variable name="x_18_12" index="408" value="1.00000"/>
  <variable name="x_19_0" index="418" value="1.00000"/>
  <variable name="x_20_0" index="440" value="1.00000"/>
  <variable name="x_21_0" index="462" value="1.00000"/>
  <variable name="x_22_0" index="484" value="1.00000"/>
  <variable name="u_1" index="506" value="20.00000"/>
  <variable name="u_2" index="507" value="16.00000"/>
  <variable name="u_3" index="508" value="19.00000"/>
  <variable name="u_4" index="509" value="15.00000"/>
  <variable name="u_5" index="510" value="7.00000"/>
  <variable name="u_6" index="511" value="21.00000"/>
  <variable name="u_7" index="512" value="8.00000"/>
  <variable name="u_8" index="513" value="22.00000"/>
  <variable name="u_9" index="514" value="20.00000"/>
  <variable name="u_10" index="515" value="16.00000"/>
  <variable name="u_11" index="516" value="16.00000"/>
  <variable name="u_12" index="517" value="20.00000"/>
  <variable name="u_13" index="518" value="20.00000"/>
  <variable name="u_14" index="519" value="22.00000"/>
  <variable name="u_15" index="520" value="19.00000"/>
  <variable name="u_16" index="521" value="9.00000"/>
  <variable name="u_17" index="522" value="15.00000"/>
  <variable name="u_18" index="523" value="3.00000"/>
  <variable name="u_19" index="524" value="19.00000"/>
  <variable name="u_20" index="525" value="22.00000"/>
  <variable name="u_21" index="526" value="22.00000"/>
  <variable name="u_22" index="527" value="22.00000"/>
 </variables>
</CPLEXSolution>
